p cnf 214 559
c uncontrollable inputs:
a 1 0
c state variables:
a 3 4 5 6 7 8 9 10 11 12 13 14 0
c next state variables:
a 15 16 17 18 19 20 21 22 23 24 25 26 0
c controllable inputs
d 2 1 3 4 5 6 7 8 9 10 11 12 13 14 0
c winning region (state)
d 27 3 4 5 6 7 8 9 10 11 12 13 14 0
c winning region (next state)
d 28 15 16 17 18 19 20 21 22 23 24 25 26 0
c tseitin variables
e 29 30 31 32 33 34 35 36 37 38 39 40 41 42 43 44 45 46 47 48 49 50 51 52 53 54 55 56 57 58 59 60 61 62 63 64 65 66 67 68 69 70 71 72 73 74 75 76 77 78 79 80 81 82 83 84 85 86 87 88 89 90 91 92 93 94 95 96 97 98 99 100 101 102 103 104 105 106 107 108 109 110 111 112 113 114 115 116 117 118 119 120 121 122 123 124 125 126 127 128 129 130 131 132 133 134 135 136 137 138 139 140 141 142 143 144 145 146 147 148 149 150 151 152 153 154 155 156 157 158 159 160 161 162 163 164 165 166 167 168 169 170 171 172 173 174 175 176 177 178 179 180 181 182 183 184 185 186 187 188 189 190 191 192 193 194 195 196 197 198 199 200 201 202 203 204 205 206 207 208 209 210 211 212 213 214 0
c clauses:
-29 -23 0
-29 11 0
29 23 -11 0
-30 23 0
-30 -11 0
30 -23 11 0
-31 -29 0
-31 -30 0
31 29 30 0
-32 -24 0
-32 12 0
32 24 -12 0
-33 24 0
-33 -12 0
33 -24 12 0
-34 -32 0
-34 -33 0
34 32 33 0
-35 31 0
-35 34 0
35 -31 -34 0
-36 -25 0
-36 13 0
36 25 -13 0
-37 25 0
-37 -13 0
37 -25 13 0
-38 -36 0
-38 -37 0
38 36 37 0
-39 -26 0
-39 14 0
39 26 -14 0
-40 26 0
-40 -14 0
40 -26 14 0
-41 -39 0
-41 -40 0
41 39 40 0
-42 38 0
-42 41 0
42 -38 -41 0
-43 35 0
-43 42 0
43 -35 -42 0
-44 -15 0
-44 3 0
44 15 -3 0
-45 15 0
-45 -3 0
45 -15 3 0
-46 -44 0
-46 -45 0
46 44 45 0
-47 -16 0
-47 4 0
47 16 -4 0
-48 16 0
-48 -4 0
48 -16 4 0
-49 -47 0
-49 -48 0
49 47 48 0
-50 46 0
-50 49 0
50 -46 -49 0
-51 -17 0
-51 5 0
51 17 -5 0
-52 17 0
-52 -5 0
52 -17 5 0
-53 -51 0
-53 -52 0
53 51 52 0
-54 -18 0
-54 6 0
54 18 -6 0
-55 18 0
-55 -6 0
55 -18 6 0
-56 -54 0
-56 -55 0
56 54 55 0
-57 53 0
-57 56 0
57 -53 -56 0
-58 50 0
-58 57 0
58 -50 -57 0
-59 -19 0
-59 7 0
59 19 -7 0
-60 19 0
-60 -7 0
60 -19 7 0
-61 -59 0
-61 -60 0
61 59 60 0
-62 -20 0
-62 8 0
62 20 -8 0
-63 20 0
-63 -8 0
63 -20 8 0
-64 -62 0
-64 -63 0
64 62 63 0
-65 61 0
-65 64 0
65 -61 -64 0
-66 -21 0
-66 9 0
66 21 -9 0
-67 21 0
-67 -9 0
67 -21 9 0
-68 -66 0
-68 -67 0
68 66 67 0
-69 -22 0
-69 10 0
69 22 -10 0
-70 22 0
-70 -10 0
70 -22 10 0
-71 -69 0
-71 -70 0
71 69 70 0
-72 68 0
-72 71 0
72 -68 -71 0
-73 65 0
-73 72 0
73 -65 -72 0
-74 58 0
-74 73 0
74 -58 -73 0
-75 43 0
-75 74 0
75 -43 -74 0
-76 28 0
-76 -27 0
76 -28 27 0
-77 -28 0
-77 27 0
77 28 -27 0
-78 -76 0
-78 -77 0
78 76 77 0
-79 75 0
-79 -78 0
79 -75 78 0
-80 5 0
-80 3 0
80 -5 -3 0
-81 4 0
-81 80 0
81 -4 -80 0
-82 6 0
-82 3 0
82 -6 -3 0
-83 81 0
-83 82 0
83 -81 -82 0
-84 7 0
-84 3 0
84 -7 -3 0
-85 83 0
-85 84 0
85 -83 -84 0
-86 8 0
-86 3 0
86 -8 -3 0
-87 85 0
-87 86 0
87 -85 -86 0
-88 9 0
-88 3 0
88 -9 -3 0
-89 87 0
-89 88 0
89 -87 -88 0
-90 10 0
-90 3 0
90 -10 -3 0
-91 89 0
-91 90 0
91 -89 -90 0
-92 11 0
-92 3 0
92 -11 -3 0
-93 91 0
-93 92 0
93 -91 -92 0
-94 -91 0
-94 -92 0
94 91 92 0
95 -93 0
95 -94 0
-95 93 94 0
-96 -1 0
-96 -95 0
96 1 95 0
-97 1 0
-97 92 0
97 -1 -92 0
-98 -96 0
-98 -97 0
98 96 97 0
-99 -23 0
-99 -98 0
99 23 98 0
-100 23 0
-100 98 0
100 -23 -98 0
-101 -99 0
-101 -100 0
101 99 100 0
-102 12 0
-102 3 0
102 -12 -3 0
-103 93 0
-103 102 0
103 -93 -102 0
-104 -93 0
-104 -102 0
104 93 102 0
105 -103 0
105 -104 0
-105 103 104 0
-106 -1 0
-106 -105 0
106 1 105 0
-107 1 0
-107 102 0
107 -1 -102 0
-108 -106 0
-108 -107 0
108 106 107 0
-109 -24 0
-109 -108 0
109 24 108 0
-110 24 0
-110 108 0
110 -24 -108 0
-111 -109 0
-111 -110 0
111 109 110 0
-112 101 0
-112 111 0
112 -101 -111 0
-113 13 0
-113 3 0
113 -13 -3 0
-114 103 0
-114 113 0
114 -103 -113 0
-115 -103 0
-115 -113 0
115 103 113 0
116 -114 0
116 -115 0
-116 114 115 0
-117 -1 0
-117 -116 0
117 1 116 0
-118 1 0
-118 113 0
118 -1 -113 0
-119 -117 0
-119 -118 0
119 117 118 0
-120 -25 0
-120 -119 0
120 25 119 0
-121 25 0
-121 119 0
121 -25 -119 0
-122 -120 0
-122 -121 0
122 120 121 0
-123 14 0
-123 3 0
123 -14 -3 0
-124 114 0
-124 123 0
124 -114 -123 0
-125 -1 0
-125 124 0
125 1 -124 0
-126 -2 0
-126 114 0
126 2 -114 0
-127 -1 0
-127 126 0
127 1 -126 0
-128 -123 0
-128 -127 0
128 123 127 0
129 -125 0
129 -128 0
-129 125 128 0
-130 -26 0
-130 -129 0
130 26 129 0
-131 26 0
-131 129 0
131 -26 -129 0
-132 -130 0
-132 -131 0
132 130 131 0
-133 122 0
-133 132 0
133 -122 -132 0
-134 112 0
-134 133 0
134 -112 -133 0
-135 4 0
-135 3 0
135 -4 -3 0
-136 -1 0
-136 -135 0
136 1 135 0
-137 1 0
-137 135 0
137 -1 -135 0
-138 -136 0
-138 -137 0
138 136 137 0
-139 -16 0
-139 -138 0
139 16 138 0
-140 16 0
-140 138 0
140 -16 -138 0
-141 -139 0
-141 -140 0
141 139 140 0
-142 15 0
-142 141 0
142 -15 -141 0
-143 -5 0
-143 135 0
143 5 -135 0
-144 -1 0
-144 143 0
144 1 -143 0
-145 4 0
-145 -1 0
145 -4 1 0
-146 80 0
-146 -145 0
146 -80 145 0
-147 -144 0
-147 -146 0
147 144 146 0
-148 -17 0
-148 -147 0
148 17 147 0
-149 17 0
-149 147 0
149 -17 -147 0
-150 -148 0
-150 -149 0
150 148 149 0
-151 -81 0
-151 -82 0
151 81 82 0
152 -83 0
152 -151 0
-152 83 151 0
-153 -1 0
-153 -152 0
153 1 152 0
-154 1 0
-154 82 0
154 -1 -82 0
-155 -153 0
-155 -154 0
155 153 154 0
-156 -18 0
-156 -155 0
156 18 155 0
-157 18 0
-157 155 0
157 -18 -155 0
-158 -156 0
-158 -157 0
158 156 157 0
-159 150 0
-159 158 0
159 -150 -158 0
-160 142 0
-160 159 0
160 -142 -159 0
-161 -83 0
-161 -84 0
161 83 84 0
162 -85 0
162 -161 0
-162 85 161 0
-163 -1 0
-163 -162 0
163 1 162 0
-164 1 0
-164 84 0
164 -1 -84 0
-165 -163 0
-165 -164 0
165 163 164 0
-166 -19 0
-166 -165 0
166 19 165 0
-167 19 0
-167 165 0
167 -19 -165 0
-168 -166 0
-168 -167 0
168 166 167 0
-169 -85 0
-169 -86 0
169 85 86 0
170 -87 0
170 -169 0
-170 87 169 0
-171 -1 0
-171 -170 0
171 1 170 0
-172 1 0
-172 86 0
172 -1 -86 0
-173 -171 0
-173 -172 0
173 171 172 0
-174 -20 0
-174 -173 0
174 20 173 0
-175 20 0
-175 173 0
175 -20 -173 0
-176 -174 0
-176 -175 0
176 174 175 0
-177 168 0
-177 176 0
177 -168 -176 0
-178 -87 0
-178 -88 0
178 87 88 0
179 -89 0
179 -178 0
-179 89 178 0
-180 -1 0
-180 -179 0
180 1 179 0
-181 1 0
-181 88 0
181 -1 -88 0
-182 -180 0
-182 -181 0
182 180 181 0
-183 -21 0
-183 -182 0
183 21 182 0
-184 21 0
-184 182 0
184 -21 -182 0
-185 -183 0
-185 -184 0
185 183 184 0
-186 -89 0
-186 -90 0
186 89 90 0
187 -91 0
187 -186 0
-187 91 186 0
-188 -1 0
-188 -187 0
188 1 187 0
-189 1 0
-189 90 0
189 -1 -90 0
-190 -188 0
-190 -189 0
190 188 189 0
-191 -22 0
-191 -190 0
191 22 190 0
-192 22 0
-192 190 0
192 -22 -190 0
-193 -191 0
-193 -192 0
193 191 192 0
-194 185 0
-194 193 0
194 -185 -193 0
-195 177 0
-195 194 0
195 -177 -194 0
-196 160 0
-196 195 0
196 -160 -195 0
-197 134 0
-197 196 0
197 -134 -196 0
-198 197 0
-198 77 0
198 -197 -77 0
-199 27 0
-199 124 0
199 -27 -124 0
-200 -12 0
-200 -11 0
200 12 11 0
-201 -14 0
-201 -13 0
201 14 13 0
-202 200 0
-202 201 0
202 -200 -201 0
-203 -4 0
-203 -3 0
203 4 3 0
-204 -6 0
-204 -5 0
204 6 5 0
-205 203 0
-205 204 0
205 -203 -204 0
-206 -8 0
-206 -7 0
206 8 7 0
-207 -10 0
-207 -9 0
207 10 9 0
-208 206 0
-208 207 0
208 -206 -207 0
-209 205 0
-209 208 0
209 -205 -208 0
-210 202 0
-210 209 0
210 -202 -209 0
-211 -27 0
-211 210 0
211 27 -210 0
-212 -199 0
-212 -211 0
212 199 211 0
-213 -198 0
-213 212 0
213 198 -212 0
-214 -79 0
-214 213 0
214 79 -213 0
214 0
